p cnf 52 2
-24 -496 -633 -651 -658 -659 -705 -959 -1035 -1081 -1915 -1942 -1985 -2219 -2334 -2335 -2336 -2337 -2360 -2379 -2380 -2381 -2389 -2390 -2391 -2392 -2393 -2394 -2778 -3261 -3337 -3383 -3717 -3899 -4104 -4106 -4182 -4230 -4366 -4500 -4504 -5156 -5180 -5289 -5557 -5563 -5574 -5578 -5581 0
-24 -496 -633 -651 -658 -659 -705 -959 -1035 -1081 -1915 -1942 -1985 -2219 -2334 -2335 -2336 -2337 -2360 -2379 -2380 -2381 -2389 -2390 -2391 -2392 -2393 -2394 -2553 -2560 -2561 -2778 -3261 -3337 -3383 -3717 -3899 -4104 -4106 -4182 -4230 -4366 -4500 -4504 -5156 -5180 -5289 -5557 -5563 -5574 -5581 0
